p cnf 23 8
-11 21 7 13 -15 11 0
4 -3 1 18 15 16 -14 23 -8 -18 -9 -2 21 7 4 -19 6 20 21 0
-1 18 0
-10 -20 -2 12 11 -23 -19 16 11 -3 4 -4 -15 -7 10 23 -16 20 -14 0
-16 14 10 5 -16 -1 -6 10 -20 4 -3 13 -23 -17 0
-4 18 20 7 23 -15 1 -22 23 11 3 2 2 -10 -13 20 6 -19 -12 4 0
-17 22 3 -14 1 -9 -17 22 -1 13 4 -18 20 4 0
-19 12 4 0